New structure
1.0
        5.8200001717         0.0000000000         0.0000000000
        0.0000000000         5.8200001717         0.0000000000
        0.0000000000         0.0000000000         5.8200001717
   Mn1   Mn2  Ga
    4    8    4
Direct
     0.000000000         0.000000000         0.000000000
    -0.000000000         0.500000000         0.500000000
     0.500000000        -0.000000000         0.500000000
     0.500000000         0.500000000         0.000000000
     0.250000000         0.250000000         0.250000000
     0.750000020         0.750000020         0.750000020
     0.750000020         0.750000020         0.250000000
     0.250000000         0.250000000         0.750000020
     0.750000020         0.250000000         0.750000020
     0.250000000         0.750000020         0.250000000
     0.250000000         0.750000020         0.750000020
     0.750000020         0.250000000         0.250000000
     0.500000000         0.500000000         0.500000000
     0.500000000         0.000000000         0.000000000
    -0.000000000         0.500000000         0.000000000
    -0.000000000        -0.000000000         0.500000000
