Mn4 Au2                                 
   1.00000000000000     
     0.0000000000000000   -0.0000000000000000    8.4442646185992185
     3.2742820983414633    0.0000000000000000   -0.0000000000000000
    -0.0000000000000000    3.2742820983414633    0.0000000000000000
   Mn   Au
     4     2
Direct
  0.1741656796314646  0.5000000000000000  0.5000000000000000
  0.3258342948478015 -0.0000000000000000 -0.0000000000000000
  0.6741656796314650  0.0000000000000000  0.0000000000000000
  0.8258342948478012  0.5000000000000000  0.5000000000000000
  0.0000000255207340  0.0000000000000000  0.0000000000000000
  0.5000000255207340  0.5000000000000000  0.5000000000000000
 
  0.00000000E+00  0.00000000E+00  0.00000000E+00
  0.00000000E+00  0.00000000E+00  0.00000000E+00
  0.00000000E+00  0.00000000E+00  0.00000000E+00
  0.00000000E+00  0.00000000E+00  0.00000000E+00
  0.00000000E+00  0.00000000E+00  0.00000000E+00
  0.00000000E+00  0.00000000E+00  0.00000000E+00
