Automatic Mesh # Generates Automatically the K-mesh
  0
Gamma # Automatic Distribution of the mesh
  15  15  15
